(set-logic ALL)
(set-option :produce-models true)
(declare-sort BoundSet 0)
(declare-sort UnboundSet 0)
(declare-fun IsCauseOf (BoundSet) Bool)
(declare-fun IsPostedBy (BoundSet BoundSet) Bool)
(assert (not (=> (exists ((b BoundSet)) (exists ((a BoundSet)) (exists ((c BoundSet)) (and (IsCauseOf c) (IsPostedBy a b))))) (exists ((b BoundSet)) (exists ((d BoundSet)) (exists ((a BoundSet)) (and (IsPostedBy a b) (IsCauseOf d))))))))
(check-sat)
(get-model)